4832
3765
14961
11492
9432
12058
1789
1454
12574
8273
7589
1302
1401
7416
7741
8448
5534
1439
3233
8350
17116
13944
8275
13568
7328
19911
21661
11940
6636
16355
8537
10420
11408
17008
9348
956
17320
14701
18251
4158
11212
15264
2414
3477
2737
22263
13808
6732
25891
1649
8500
4854
12573
4587
3067
1307
6320
9721
18934
18297
7629
11051
1631
1005
21629
13099
10952
4517
11606
8187
8207
5639
12731
1845
15860
3043
5593
4816
12745
10302
5939
7684
3634
13402
14609
9054
12477
16009
14403
2942
16024
24771
6140
19550
11165
6857
4713
3309
14868
